************************************************************************
file with basedata            : md331_.bas
initial value random generator: 1469038660
************************************************************************
projects                      :  1
jobs (incl. supersource/sink ):  22
horizon                       :  150
RESOURCES
  - renewable                 :  2   R
  - nonrenewable              :  2   N
  - doubly constrained        :  0   D
************************************************************************
PROJECT INFORMATION:
pronr.  #jobs rel.date duedate tardcost  MPM-Time
    1     20      0       18        0       18
************************************************************************
PRECEDENCE RELATIONS:
jobnr.    #modes  #successors   successors
   1        1          3           2   3   4
   2        3          3           5   6  18
   3        3          3           8  11  14
   4        3          3           7   9  12
   5        3          3           7  14  21
   6        3          3           9  12  17
   7        3          1          20
   8        3          3          10  16  20
   9        3          1          19
  10        3          3          12  15  17
  11        3          3          13  15  18
  12        3          1          13
  13        3          2          19  21
  14        3          1          15
  15        3          1          19
  16        3          1          17
  17        3          1          21
  18        3          1          20
  19        3          1          22
  20        3          1          22
  21        3          1          22
  22        1          0        
************************************************************************
REQUESTS/DURATIONS:
jobnr. mode duration  R 1  R 2  N 1  N 2
------------------------------------------------------------------------
  1      1     0       0    0    0    0
  2      1     4       0    7    0    9
         2     8       7    0   10    0
         3    10       0    4    0    8
  3      1     3       0    5    8    0
         2     6       0    3    7    0
         3    10       9    0    0    7
  4      1     2       9    0    8    0
         2     3       0    6    2    0
         3     9       7    0    0    2
  5      1     1      10    0    0    6
         2     1       0    6    3    0
         3     5       0    4    0    7
  6      1     4       4    0    0    8
         2     5       0    7    0    4
         3    10       0    6    0    4
  7      1     2       4    0    1    0
         2     3       0    3    0    4
         3     8       4    0    0    4
  8      1     2       0    5    0    7
         2     7       0    4    6    0
         3     9       0    4    5    0
  9      1     1       8    0    6    0
         2     7       5    0    6    0
         3     8       0    7    3    0
 10      1     3       0    9    0    6
         2     5       0    8    0    3
         3     9       0    8    7    0
 11      1     1       6    0    5    0
         2     1       0   10    7    0
         3     4       0    9    3    0
 12      1     2       6    0    0    5
         2     6       5    0    0    2
         3     7       0    6    9    0
 13      1     4       7    0    9    0
         2     5       6    0    0    9
         3    10       3    0    0    7
 14      1     4       9    0    0    5
         2     5       5    0    0    2
         3     6       0    5    9    0
 15      1     3       0    2    7    0
         2     6       4    0    0    9
         3     6       0    1    0    2
 16      1     2       0    3    0    8
         2     4       0    2    8    0
         3     4       5    0    0    3
 17      1     4       0    8    0    4
         2     7       8    0    2    0
         3     8       3    0    0    3
 18      1     4       6    0    0    7
         2     5       0    7    0    5
         3     7       6    0    0    3
 19      1     4       6    0    9    0
         2     4       5    0   10    0
         3     5       5    0    9    0
 20      1     3       8    0    8    0
         2     4       7    0    7    0
         3     5       0    7    7    0
 21      1     1       0    5    6    0
         2     2       0    3    0    6
         3    10       0    2    0    5
 22      1     0       0    0    0    0
************************************************************************
RESOURCEAVAILABILITIES:
  R 1  R 2  N 1  N 2
   22   28   73   55
************************************************************************
MAXIMAL LAGS:
from  to  type  delay
    1   12   ES      0
    1    2   ES      0
    2   12   ES      0
    1    3   ES      0
    3   12   ES      0
    1    4   ES      0
    4   12   ES      0
    1    5   ES      0
    5   12   ES      0
    1    6   ES      0
    6   12   ES      0
    1    7   ES      0
    7   12   ES      0
    1    8   ES      0
    8   12   ES      0
    1    9   ES      0
    9   12   ES      0
    1   10   ES      0
   10   12   ES      0
    1   11   ES      0
   11   12   ES      0
    1   12   ES      0
    2    5   SS      1
    2    5   SE     -9
    2    5   ES     10
    2    5   EE     -9
    2    6   SS      8
    2    6   SE      8
    2    6   ES     12
    2    6   EE      5
    2   18   SS     11
    2   18   SE     -6
    2   18   ES      1
    2   18   EE      2
    3    8   SS     -5
    3    8   SE      1
    3    8   ES     -2
    3    8   EE      2
    3   11   SS      0
    3   11   SE      1
    3   11   ES     11
    3   11   EE     -9
    3   14   SS     -2
    3   14   SE      1
    3   14   ES     -2
    3   14   EE      9
    4    7   SS     -4
    4    7   SE     -1
    4    7   ES     -8
    4    7   EE      9
    4    9   SS      3
    4    9   SE    -10
    4    9   ES    -10
    4    9   EE    -10
    5    7   SS    -10
    5    7   SE      1
    5    7   ES     -9
    5    7   EE     11
    5   14   SS     11
    5   14   SE     -1
    5   14   ES     -8
    5   14   EE      5
    5   21   SS    -11
    5   21   SE      6
    5   21   ES      5
    5   21   EE      5
    6    9   SS     -2
    6    9   SE      9
    6    9   ES     -9
    6    9   EE      1
    6   17   SS     -1
    6   17   SE      9
    6   17   ES     12
    6   17   EE      1
    7   20   SS     11
    7   20   SE    -11
    7   20   ES     -3
    7   20   EE      7
    8   10   SS     -3
    8   10   SE     -1
    8   10   ES     -9
    8   10   EE      6
    8   16   SS      4
    8   16   SE     -6
    8   16   ES     -8
    8   16   EE      9
    8   20   SS      3
    8   20   SE     -5
    8   20   ES     -9
    8   20   EE     -1
    9   19   SS      5
    9   19   SE     -1
    9   19   ES     -9
    9   19   EE     12
   10   15   SS     -4
   10   15   SE      6
   10   15   ES     -5
   10   15   EE      1
   10   17   SS      5
   10   17   SE     12
   10   17   ES      7
   10   17   EE      7
   11   13   SS      9
   11   13   SE      8
   11   13   ES      5
   11   13   EE    -12
   11   15   SS      7
   11   15   SE      9
   11   15   ES     10
   11   15   EE     -4
   11   18   SS    -12
   11   18   SE     -7
   11   18   ES     -4
   11   18   EE     10
   12   13   SS     12
   12   13   SE     -3
   12   13   ES     -2
   12   13   EE     -1
   13   19   SS    -12
   13   19   SE     -7
   13   19   ES     -8
   13   19   EE      6
   13   21   SS      9
   13   21   SE      0
   13   21   ES    -10
   13   21   EE     -8
   14   15   SS     11
   14   15   SE      8
   14   15   ES    -12
   14   15   EE    -10
   15   19   SS     11
   15   19   SE      4
   15   19   ES     -6
   15   19   EE      0
   16   17   SS      1
   16   17   SE      2
   16   17   ES     -2
   16   17   EE     -7
   17   21   SS     -1
   17   21   SE     -3
   17   21   ES     11
   17   21   EE     -2
   18   20   SS     12
   18   20   SE      6
   18   20   ES      7
   18   20   EE    -10
   19   22   SS    -11
   19   22   SE     -8
   19   22   ES     -7
   19   22   EE     12
   20   22   SS      7
   20   22   SE    -11
   20   22   ES      9
   20   22   EE    -10
   21   22   SS     -4
   21   22   SE      2
   21   22   ES      9
   21   22   EE      1
************************************************************************
